eval/18-encs/equiv_enc_614.smt2
; DUP1 DUP4 SHA3 SWAP4 SWAP1 SWAP4 => SWAP3 DUP4 DUP4 SHA3
(set-option :produce-proofs true)
; 
(set-info :status unknown)
(declare-fun storage_t ((_ BitVec 256) (_ BitVec 256) (_ BitVec 256) (_ BitVec 256) (_ BitVec 256) Int (_ BitVec 256)) (_ BitVec 256))
(declare-fun storage_s ((_ BitVec 256) (_ BitVec 256) (_ BitVec 256) (_ BitVec 256) (_ BitVec 256) Int (_ BitVec 256)) (_ BitVec 256))
(declare-fun exc_halt_t (Int) Bool)
(declare-fun exc_halt_s (Int) Bool)
(declare-fun stack_t ((_ BitVec 256) (_ BitVec 256) (_ BitVec 256) (_ BitVec 256) (_ BitVec 256) Int (_ BitVec 6)) (_ BitVec 256))
(declare-fun stack_s ((_ BitVec 256) (_ BitVec 256) (_ BitVec 256) (_ BitVec 256) (_ BitVec 256) Int (_ BitVec 6)) (_ BitVec 256))
(declare-fun sc_t (Int) (_ BitVec 6))
(declare-fun sc_s (Int) (_ BitVec 6))
(declare-fun used_gas_t ((_ BitVec 256) (_ BitVec 256) (_ BitVec 256) (_ BitVec 256) (_ BitVec 256) Int) Int)
(declare-fun used_gas_s ((_ BitVec 256) (_ BitVec 256) (_ BitVec 256) (_ BitVec 256) (_ BitVec 256) Int) Int)
(declare-fun f_SHA3 ((_ BitVec 256) (_ BitVec 256) (_ BitVec 256) (_ BitVec 256) (_ BitVec 256) (_ BitVec 256) (_ BitVec 256)) (_ BitVec 256))
(assert
 (exists ((x_0 (_ BitVec 256)) (x_1 (_ BitVec 256)) (x_2 (_ BitVec 256)) (x_3 (_ BitVec 256)) (x_SHA3_0 (_ BitVec 256)) )(let (($x5299 (forall ((w (_ BitVec 256)) )(let ((?x2416 (storage_t x_0 x_1 x_2 x_3 x_SHA3_0 4 w)))
 (let ((?x797 (storage_s x_0 x_1 x_2 x_3 x_SHA3_0 6 w)))
 (= ?x797 ?x2416))))
 ))
 (let (($x7854 (exc_halt_t 4)))
 (let (($x772 (exc_halt_s 6)))
 (let (($x4404 (= $x772 $x7854)))
 (let (($x9409 (forall ((n (_ BitVec 6)) )(let ((?x11822 (stack_t x_0 x_1 x_2 x_3 x_SHA3_0 4 n)))
 (let ((?x8014 (stack_s x_0 x_1 x_2 x_3 x_SHA3_0 6 n)))
 (let (($x9753 (= ?x8014 ?x11822)))
 (let ((?x4818 (sc_t 4)))
 (let (($x4903 (bvsle ?x4818 n)))
 (or $x4903 $x9753)))))))
 ))
 (let ((?x4818 (sc_t 4)))
 (let ((?x926 (sc_s 6)))
 (let (($x7899 (= ?x926 ?x4818)))
 (let ((?x379 (used_gas_t x_0 x_1 x_2 x_3 x_SHA3_0 0)))
 (let ((?x4969 (used_gas_s x_0 x_1 x_2 x_3 x_SHA3_0 0)))
 (let (($x10988 (= ?x4969 ?x379)))
 (let (($x3570 (forall ((w (_ BitVec 256)) )(let ((?x7031 (storage_t x_0 x_1 x_2 x_3 x_SHA3_0 0 w)))
 (let ((?x4260 (storage_s x_0 x_1 x_2 x_3 x_SHA3_0 0 w)))
 (= ?x4260 ?x7031))))
 ))
 (let (($x56 (exc_halt_t 0)))
 (let (($x57 (exc_halt_s 0)))
 (let (($x58 (= $x57 $x56)))
 (let (($x10136 (forall ((n (_ BitVec 6)) )(let ((?x63 (sc_t 0)))
 (let (($x11399 (bvsle ?x63 n)))
 (let ((?x10502 (stack_t x_0 x_1 x_2 x_3 x_SHA3_0 0 n)))
 (let ((?x10853 (stack_s x_0 x_1 x_2 x_3 x_SHA3_0 0 n)))
 (let (($x10805 (= ?x10853 ?x10502)))
 (or $x10805 $x11399)))))))
 ))
 (let ((?x63 (sc_t 0)))
 (let ((?x72 (sc_s 0)))
 (let (($x73 (= ?x72 ?x63)))
 (let (($x11807 (= $x7854 (or (exc_halt_t 3) (not (bvsle (_ bv0 6) (bvadd (_ bv62 6) (sc_t 3))))))))
 (let (($x467 (forall ((w (_ BitVec 256)) )(let ((?x3339 (storage_t x_0 x_1 x_2 x_3 x_SHA3_0 3 w)))
 (let ((?x2416 (storage_t x_0 x_1 x_2 x_3 x_SHA3_0 4 w)))
 (= ?x2416 ?x3339))))
 ))
 (let (($x3831 (forall ((n (_ BitVec 6)) )(let ((?x11304 (sc_t 3)))
 (let ((?x305 (bvadd (_ bv62 6) ?x11304)))
 (let (($x5658 (bvsle ?x305 n)))
 (let ((?x1290 (stack_t x_0 x_1 x_2 x_3 x_SHA3_0 3 n)))
 (let ((?x11822 (stack_t x_0 x_1 x_2 x_3 x_SHA3_0 4 n)))
 (let (($x4429 (= ?x11822 ?x1290)))
 (or $x4429 $x5658))))))))
 ))
 (let ((?x11304 (sc_t 3)))
 (let ((?x3412 (bvadd (_ bv63 6) ?x11304)))
 (let (($x11229 (= ?x4818 ?x3412)))
 (let ((?x11803 (used_gas_t x_0 x_1 x_2 x_3 x_SHA3_0 4)))
 (let ((?x305 (bvadd (_ bv62 6) ?x11304)))
 (let ((?x10723 (stack_t x_0 x_1 x_2 x_3 x_SHA3_0 3 ?x305)))
 (let ((?x6400 (stack_t x_0 x_1 x_2 x_3 x_SHA3_0 3 ?x3412)))
 (let ((?x11971 (bvadd (_ bv63 6) ?x4818)))
 (let ((?x6144 (stack_t x_0 x_1 x_2 x_3 x_SHA3_0 4 ?x11971)))
 (let (($x9627 (exc_halt_t 2)))
 (let (($x1561 (not (= ((_ extract 6 6) (bvadd (_ bv1 7) (concat (_ bv0 1) (sc_t 2)))) (_ bv0 1)))))
 (let (($x3614 (exc_halt_t 3)))
 (let (($x11453 (forall ((w (_ BitVec 256)) )(let ((?x10495 (storage_t x_0 x_1 x_2 x_3 x_SHA3_0 2 w)))
 (let ((?x3339 (storage_t x_0 x_1 x_2 x_3 x_SHA3_0 3 w)))
 (= ?x3339 ?x10495))))
 ))
 (let (($x5727 (forall ((n (_ BitVec 6)) )(let ((?x10579 (stack_t x_0 x_1 x_2 x_3 x_SHA3_0 2 n)))
 (let ((?x1290 (stack_t x_0 x_1 x_2 x_3 x_SHA3_0 3 n)))
 (let (($x9827 (= ?x1290 ?x10579)))
 (or (bvsle (bvadd (_ bv60 6) (sc_t 2)) n) $x9827)))))
 ))
 (let (($x4773 (= ?x11304 (bvadd (_ bv1 6) (sc_t 2)))))
 (let ((?x1926 (used_gas_t x_0 x_1 x_2 x_3 x_SHA3_0 3)))
 (let (($x4318 (= ?x1926 (+ 3 (used_gas_t x_0 x_1 x_2 x_3 x_SHA3_0 2)))))
 (let ((?x2714 (sc_t 2)))
 (let ((?x2173 (bvadd (_ bv63 6) ?x2714)))
 (let ((?x3462 (stack_t x_0 x_1 x_2 x_3 x_SHA3_0 2 ?x2173)))
 (let ((?x7962 (bvadd (_ bv62 6) ?x2714)))
 (let ((?x11275 (stack_t x_0 x_1 x_2 x_3 x_SHA3_0 2 ?x7962)))
 (let ((?x4747 (bvadd (_ bv61 6) ?x2714)))
 (let ((?x11718 (stack_t x_0 x_1 x_2 x_3 x_SHA3_0 2 ?x4747)))
 (let ((?x2182 (bvadd (_ bv60 6) ?x2714)))
 (let ((?x2435 (stack_t x_0 x_1 x_2 x_3 x_SHA3_0 2 ?x2182)))
 (let (($x11437 (not (= ((_ extract 6 6) (bvadd (_ bv1 7) (concat (_ bv0 1) (sc_t 1)))) (_ bv0 1)))))
 (let (($x9710 (not (bvsle (_ bv0 6) (bvadd (_ bv60 6) (sc_t 1))))))
 (let (($x8377 (exc_halt_t 1)))
 (let (($x4595 (forall ((w (_ BitVec 256)) )(let ((?x4983 (storage_t x_0 x_1 x_2 x_3 x_SHA3_0 1 w)))
 (let ((?x10495 (storage_t x_0 x_1 x_2 x_3 x_SHA3_0 2 w)))
 (= ?x10495 ?x4983))))
 ))
 (let (($x1621 (forall ((n (_ BitVec 6)) )(let ((?x6600 (stack_t x_0 x_1 x_2 x_3 x_SHA3_0 1 n)))
 (let ((?x10579 (stack_t x_0 x_1 x_2 x_3 x_SHA3_0 2 n)))
 (let (($x8660 (= ?x10579 ?x6600)))
 (let ((?x7154 (sc_t 1)))
 (let ((?x8028 (bvadd (_ bv60 6) ?x7154)))
 (let (($x2560 (bvsle ?x8028 n)))
 (or $x2560 $x8660))))))))
 ))
 (let (($x8876 (= ?x2714 (bvadd (_ bv1 6) (sc_t 1)))))
 (let ((?x11532 (used_gas_t x_0 x_1 x_2 x_3 x_SHA3_0 2)))
 (let ((?x7154 (sc_t 1)))
 (let ((?x11571 (bvadd (_ bv63 6) ?x7154)))
 (let ((?x6554 (stack_t x_0 x_1 x_2 x_3 x_SHA3_0 1 ?x11571)))
 (let ((?x4799 (bvadd (_ bv62 6) ?x7154)))
 (let ((?x10528 (stack_t x_0 x_1 x_2 x_3 x_SHA3_0 1 ?x4799)))
 (let ((?x10814 (bvadd (_ bv61 6) ?x7154)))
 (let ((?x7360 (stack_t x_0 x_1 x_2 x_3 x_SHA3_0 1 ?x10814)))
 (let ((?x8028 (bvadd (_ bv60 6) ?x7154)))
 (let ((?x2084 (stack_t x_0 x_1 x_2 x_3 x_SHA3_0 1 ?x8028)))
 (let (($x8851 (forall ((w (_ BitVec 256)) )(let ((?x7031 (storage_t x_0 x_1 x_2 x_3 x_SHA3_0 0 w)))
 (let ((?x4983 (storage_t x_0 x_1 x_2 x_3 x_SHA3_0 1 w)))
 (= ?x4983 ?x7031))))
 ))
 (let (($x7142 (forall ((n (_ BitVec 6)) )(let ((?x10502 (stack_t x_0 x_1 x_2 x_3 x_SHA3_0 0 n)))
 (let ((?x6600 (stack_t x_0 x_1 x_2 x_3 x_SHA3_0 1 n)))
 (let ((?x63 (sc_t 0)))
 (let ((?x6617 (bvadd (_ bv60 6) ?x63)))
 (let (($x3923 (bvsle ?x6617 n)))
 (or $x3923 (= ?x6600 ?x10502))))))))
 ))
 (let (($x9808 (= ?x7154 ?x63)))
 (let ((?x5615 (used_gas_t x_0 x_1 x_2 x_3 x_SHA3_0 1)))
 (let (($x6379 (= ?x5615 (+ 3 ?x379))))
 (let ((?x6617 (bvadd (_ bv60 6) ?x63)))
 (let ((?x2248 (stack_t x_0 x_1 x_2 x_3 x_SHA3_0 0 ?x6617)))
 (let (($x1072 (= ?x6554 ?x2248)))
 (let (($x3656 (= $x772 (or (exc_halt_s 5) (not (bvsle (_ bv0 6) (bvadd (_ bv59 6) (sc_s 5))))))))
 (let (($x9972 (forall ((w (_ BitVec 256)) )(let ((?x8628 (storage_s x_0 x_1 x_2 x_3 x_SHA3_0 5 w)))
 (let ((?x797 (storage_s x_0 x_1 x_2 x_3 x_SHA3_0 6 w)))
 (= ?x797 ?x8628))))
 ))
 (let (($x4519 (forall ((n (_ BitVec 6)) )(let ((?x1961 (stack_s x_0 x_1 x_2 x_3 x_SHA3_0 5 n)))
 (let ((?x8014 (stack_s x_0 x_1 x_2 x_3 x_SHA3_0 6 n)))
 (or (bvsle (bvadd (_ bv59 6) (sc_s 5)) n) (= ?x8014 ?x1961)))))
 ))
 (let ((?x4319 (sc_s 5)))
 (let (($x9550 (= ?x926 ?x4319)))
 (let (($x11673 (= (used_gas_s x_0 x_1 x_2 x_3 x_SHA3_0 6) (+ 3 (used_gas_s x_0 x_1 x_2 x_3 x_SHA3_0 5)))))
 (let ((?x5096 (bvadd (_ bv62 6) ?x4319)))
 (let ((?x9491 (stack_s x_0 x_1 x_2 x_3 x_SHA3_0 5 ?x5096)))
 (let (($x6590 (= (stack_s x_0 x_1 x_2 x_3 x_SHA3_0 6 (bvadd (_ bv61 6) ?x926)) (stack_s x_0 x_1 x_2 x_3 x_SHA3_0 5 (bvadd (_ bv61 6) ?x4319)))))
 (let (($x9712 (= (stack_s x_0 x_1 x_2 x_3 x_SHA3_0 6 (bvadd (_ bv60 6) ?x926)) (stack_s x_0 x_1 x_2 x_3 x_SHA3_0 5 (bvadd (_ bv60 6) ?x4319)))))
 (let ((?x11178 (bvadd (_ bv63 6) ?x4319)))
 (let ((?x2288 (stack_s x_0 x_1 x_2 x_3 x_SHA3_0 5 ?x11178)))
 (let (($x9344 (= (stack_s x_0 x_1 x_2 x_3 x_SHA3_0 6 (bvadd (_ bv63 6) ?x926)) (stack_s x_0 x_1 x_2 x_3 x_SHA3_0 5 (bvadd (_ bv59 6) ?x4319)))))
 (let (($x11317 (exc_halt_s 5)))
 (let (($x4244 (= $x11317 (or (exc_halt_s 4) (not (bvsle (_ bv0 6) (bvadd (_ bv62 6) (sc_s 4))))))))
 (let (($x1285 (forall ((w (_ BitVec 256)) )(let ((?x10741 (storage_s x_0 x_1 x_2 x_3 x_SHA3_0 4 w)))
 (let ((?x8628 (storage_s x_0 x_1 x_2 x_3 x_SHA3_0 5 w)))
 (= ?x8628 ?x10741))))
 ))
 (let (($x1954 (forall ((n (_ BitVec 6)) )(let ((?x4305 (sc_s 4)))
 (let ((?x11444 (bvadd (_ bv62 6) ?x4305)))
 (let (($x6321 (bvsle ?x11444 n)))
 (let ((?x11315 (stack_s x_0 x_1 x_2 x_3 x_SHA3_0 4 n)))
 (let ((?x1961 (stack_s x_0 x_1 x_2 x_3 x_SHA3_0 5 n)))
 (or (= ?x1961 ?x11315) $x6321)))))))
 ))
 (let ((?x4305 (sc_s 4)))
 (let (($x3039 (= ?x4319 ?x4305)))
 (let ((?x3916 (used_gas_s x_0 x_1 x_2 x_3 x_SHA3_0 5)))
 (let (($x3072 (= ?x3916 (+ 3 (used_gas_s x_0 x_1 x_2 x_3 x_SHA3_0 4)))))
 (let ((?x4400 (bvadd (_ bv63 6) ?x4305)))
 (let ((?x1294 (stack_s x_0 x_1 x_2 x_3 x_SHA3_0 4 ?x4400)))
 (let (($x5472 (= ?x9491 ?x1294)))
 (let ((?x11444 (bvadd (_ bv62 6) ?x4305)))
 (let ((?x1519 (stack_s x_0 x_1 x_2 x_3 x_SHA3_0 4 ?x11444)))
 (let (($x9680 (= ?x2288 ?x1519)))
 (let (($x7172 (exc_halt_s 4)))
 (let (($x9102 (= $x7172 (or (exc_halt_s 3) (not (bvsle (_ bv0 6) (bvadd (_ bv59 6) (sc_s 3))))))))
 (let (($x11023 (forall ((w (_ BitVec 256)) )(let ((?x11517 (storage_s x_0 x_1 x_2 x_3 x_SHA3_0 3 w)))
 (let ((?x10741 (storage_s x_0 x_1 x_2 x_3 x_SHA3_0 4 w)))
 (= ?x10741 ?x11517))))
 ))
 (let (($x7417 (forall ((n (_ BitVec 6)) )(let ((?x1639 (stack_s x_0 x_1 x_2 x_3 x_SHA3_0 3 n)))
 (let ((?x11315 (stack_s x_0 x_1 x_2 x_3 x_SHA3_0 4 n)))
 (or (= ?x11315 ?x1639) (bvsle (bvadd (_ bv59 6) (sc_s 3)) n)))))
 ))
 (let ((?x275 (sc_s 3)))
 (let (($x7359 (= ?x4305 ?x275)))
 (let ((?x1521 (used_gas_s x_0 x_1 x_2 x_3 x_SHA3_0 4)))
 (let (($x3192 (= ?x1521 (+ 3 (used_gas_s x_0 x_1 x_2 x_3 x_SHA3_0 3)))))
 (let ((?x8712 (bvadd (_ bv61 6) ?x275)))
 (let ((?x3597 (stack_s x_0 x_1 x_2 x_3 x_SHA3_0 3 ?x8712)))
 (let ((?x6695 (bvadd (_ bv60 6) ?x275)))
 (let ((?x10645 (stack_s x_0 x_1 x_2 x_3 x_SHA3_0 3 ?x6695)))
 (let ((?x6326 (bvadd (_ bv63 6) ?x275)))
 (let ((?x10178 (stack_s x_0 x_1 x_2 x_3 x_SHA3_0 3 ?x6326)))
 (let ((?x3797 (bvadd (_ bv59 6) ?x275)))
 (let ((?x1048 (stack_s x_0 x_1 x_2 x_3 x_SHA3_0 3 ?x3797)))
 (let (($x2843 (= ?x1294 ?x1048)))
 (let (($x292 (exc_halt_s 3)))
 (let (($x4349 (= $x292 (or (exc_halt_s 2) (not (bvsle (_ bv0 6) (bvadd (_ bv62 6) (sc_s 2))))))))
 (let (($x5816 (forall ((w (_ BitVec 256)) )(let ((?x6089 (storage_s x_0 x_1 x_2 x_3 x_SHA3_0 2 w)))
 (let ((?x11517 (storage_s x_0 x_1 x_2 x_3 x_SHA3_0 3 w)))
 (= ?x11517 ?x6089))))
 ))
 (let (($x10099 (forall ((n (_ BitVec 6)) )(let ((?x218 (sc_s 2)))
 (let ((?x11717 (bvadd (_ bv62 6) ?x218)))
 (let (($x10841 (bvsle ?x11717 n)))
 (let ((?x1129 (stack_s x_0 x_1 x_2 x_3 x_SHA3_0 2 n)))
 (let ((?x1639 (stack_s x_0 x_1 x_2 x_3 x_SHA3_0 3 n)))
 (or (= ?x1639 ?x1129) $x10841)))))))
 ))
 (let ((?x218 (sc_s 2)))
 (let ((?x5342 (bvadd (_ bv63 6) ?x218)))
 (let (($x2080 (= ?x275 ?x5342)))
 (let ((?x3485 (used_gas_s x_0 x_1 x_2 x_3 x_SHA3_0 3)))
 (let ((?x11717 (bvadd (_ bv62 6) ?x218)))
 (let ((?x10500 (stack_s x_0 x_1 x_2 x_3 x_SHA3_0 2 ?x11717)))
 (let ((?x2013 (stack_s x_0 x_1 x_2 x_3 x_SHA3_0 2 ?x5342)))
 (let (($x10851 (not (bvsle (_ bv0 6) (bvadd (_ bv60 6) (sc_s 1))))))
 (let (($x3809 (not (= ((_ extract 6 6) (bvadd (_ bv1 7) (concat (_ bv0 1) (sc_s 1)))) (_ bv0 1)))))
 (let (($x189 (exc_halt_s 1)))
 (let (($x247 (exc_halt_s 2)))
 (let (($x7729 (= $x247 (or $x189 $x3809 $x10851))))
 (let (($x3637 (forall ((w (_ BitVec 256)) )(let ((?x7563 (storage_s x_0 x_1 x_2 x_3 x_SHA3_0 1 w)))
 (let ((?x6089 (storage_s x_0 x_1 x_2 x_3 x_SHA3_0 2 w)))
 (= ?x6089 ?x7563))))
 ))
 (let (($x4659 (forall ((n (_ BitVec 6)) )(let ((?x9240 (stack_s x_0 x_1 x_2 x_3 x_SHA3_0 1 n)))
 (let ((?x1129 (stack_s x_0 x_1 x_2 x_3 x_SHA3_0 2 n)))
 (let (($x10036 (= ?x1129 ?x9240)))
 (let ((?x154 (sc_s 1)))
 (let ((?x10691 (bvadd (_ bv60 6) ?x154)))
 (let (($x9677 (bvsle ?x10691 n)))
 (or $x9677 $x10036))))))))
 ))
 (let (($x10974 (= ?x218 (bvadd (_ bv1 6) (sc_s 1)))))
 (let ((?x9645 (used_gas_s x_0 x_1 x_2 x_3 x_SHA3_0 2)))
 (let ((?x154 (sc_s 1)))
 (let ((?x354 (bvadd (_ bv63 6) ?x154)))
 (let ((?x6037 (stack_s x_0 x_1 x_2 x_3 x_SHA3_0 1 ?x354)))
 (let ((?x6501 (bvadd (_ bv62 6) ?x154)))
 (let ((?x2806 (stack_s x_0 x_1 x_2 x_3 x_SHA3_0 1 ?x6501)))
 (let (($x3685 (= (stack_s x_0 x_1 x_2 x_3 x_SHA3_0 2 (bvadd (_ bv61 6) ?x154)) (stack_s x_0 x_1 x_2 x_3 x_SHA3_0 1 (bvadd (_ bv61 6) ?x154)))))
 (let ((?x10691 (bvadd (_ bv60 6) ?x154)))
 (let ((?x4034 (stack_s x_0 x_1 x_2 x_3 x_SHA3_0 1 ?x10691)))
 (let (($x4663 (not (= ((_ extract 6 6) (bvadd (_ bv1 7) (concat (_ bv0 1) ?x72))) (_ bv0 1)))))
 (let (($x403 (not (bvsle (_ bv0 6) (bvadd (_ bv63 6) ?x72)))))
 (let (($x7444 (forall ((w (_ BitVec 256)) )(let ((?x4260 (storage_s x_0 x_1 x_2 x_3 x_SHA3_0 0 w)))
 (let ((?x7563 (storage_s x_0 x_1 x_2 x_3 x_SHA3_0 1 w)))
 (= ?x7563 ?x4260))))
 ))
 (let (($x3970 (forall ((n (_ BitVec 6)) )(let ((?x10853 (stack_s x_0 x_1 x_2 x_3 x_SHA3_0 0 n)))
 (let ((?x9240 (stack_s x_0 x_1 x_2 x_3 x_SHA3_0 1 n)))
 (let (($x7372 (= ?x9240 ?x10853)))
 (let ((?x72 (sc_s 0)))
 (let ((?x6810 (bvadd (_ bv63 6) ?x72)))
 (let (($x5735 (bvsle ?x6810 n)))
 (or $x5735 $x7372))))))))
 ))
 (let (($x11668 (= ?x154 (bvadd (_ bv1 6) ?x72))))
 (let ((?x8033 (used_gas_s x_0 x_1 x_2 x_3 x_SHA3_0 1)))
 (let (($x4535 (= ?x8033 (+ 3 ?x4969))))
 (let ((?x6810 (bvadd (_ bv63 6) ?x72)))
 (let ((?x9346 (stack_s x_0 x_1 x_2 x_3 x_SHA3_0 0 ?x6810)))
 (let (($x2261 (forall ((w0 (_ BitVec 256)) (w1 (_ BitVec 256)) )(let (($x1201 (= (stack_s x_0 x_1 x_2 x_3 x_SHA3_0 2 (bvadd (_ bv62 6) (sc_s 2))) w1)))
 (let (($x8282 (= (stack_s x_0 x_1 x_2 x_3 x_SHA3_0 2 (bvadd (_ bv63 6) (sc_s 2))) w0)))
 (let ((?x4774 (f_SHA3 x_0 x_1 x_2 x_3 x_SHA3_0 w0 w1)))
 (= ?x4774 (ite (and $x8282 $x1201) x_SHA3_0 (_ bv0 256)))))))
 ))
 (let (($x5142 (forall ((w (_ BitVec 256)) )(let ((?x4260 (storage_s x_0 x_1 x_2 x_3 x_SHA3_0 0 w)))
 (= ?x4260 (_ bv0 256))))
 ))
 (let (($x1187 (= ?x4969 0)))
 (let (($x11580 (not $x57)))
 (let (($x6250 (= (stack_s x_0 x_1 x_2 x_3 x_SHA3_0 0 (_ bv3 6)) x_3)))
 (let (($x6854 (= (stack_s x_0 x_1 x_2 x_3 x_SHA3_0 0 (_ bv2 6)) x_2)))
 (let (($x4286 (= (stack_s x_0 x_1 x_2 x_3 x_SHA3_0 0 (_ bv1 6)) x_1)))
 (let (($x9803 (= (stack_s x_0 x_1 x_2 x_3 x_SHA3_0 0 (_ bv0 6)) x_0)))
 (let (($x11199 (= ?x72 (_ bv4 6))))
 (and $x11199 $x9803 $x4286 $x6854 $x6250 $x11580 $x1187 $x5142 $x2261 (= ?x6037 ?x9346) (= (stack_s x_0 x_1 x_2 x_3 x_SHA3_0 1 ?x6810) ?x9346) $x4535 $x11668 $x3970 $x7444 (= $x189 (or $x57 $x403 $x4663)) (= ?x2013 ?x4034) (= (stack_s x_0 x_1 x_2 x_3 x_SHA3_0 2 ?x10691) ?x4034) $x3685 (= (stack_s x_0 x_1 x_2 x_3 x_SHA3_0 2 ?x6501) ?x2806) (= (stack_s x_0 x_1 x_2 x_3 x_SHA3_0 2 ?x354) ?x6037) (= ?x9645 (+ 3 ?x8033)) $x10974 $x4659 $x3637 $x7729 (= ?x10178 (f_SHA3 x_0 x_1 x_2 x_3 x_SHA3_0 ?x2013 ?x10500)) (= ?x3485 (+ 30 ?x9645)) $x2080 $x10099 $x5816 $x4349 $x2843 (= (stack_s x_0 x_1 x_2 x_3 x_SHA3_0 4 (bvadd (_ bv59 6) ?x4305)) ?x10178) (= (stack_s x_0 x_1 x_2 x_3 x_SHA3_0 4 (bvadd (_ bv60 6) ?x4305)) ?x10645) (= (stack_s x_0 x_1 x_2 x_3 x_SHA3_0 4 (bvadd (_ bv61 6) ?x4305)) ?x3597) (= ?x1519 (stack_s x_0 x_1 x_2 x_3 x_SHA3_0 3 (bvadd (_ bv62 6) ?x275))) $x3192 $x7359 $x7417 $x11023 $x9102 $x9680 $x5472 $x3072 $x3039 $x1954 $x1285 $x4244 $x9344 (= (stack_s x_0 x_1 x_2 x_3 x_SHA3_0 6 (bvadd (_ bv59 6) ?x926)) ?x2288) $x9712 $x6590 (= (stack_s x_0 x_1 x_2 x_3 x_SHA3_0 6 (bvadd (_ bv62 6) ?x926)) ?x9491) $x11673 $x9550 $x4519 $x9972 $x3656 $x1072 (= ?x2084 (stack_t x_0 x_1 x_2 x_3 x_SHA3_0 0 (bvadd (_ bv63 6) ?x63))) (= ?x7360 (stack_t x_0 x_1 x_2 x_3 x_SHA3_0 0 (bvadd (_ bv61 6) ?x63))) (= ?x10528 (stack_t x_0 x_1 x_2 x_3 x_SHA3_0 0 (bvadd (_ bv62 6) ?x63))) $x6379 $x9808 $x7142 $x8851 (= $x8377 (or $x56 (not (bvsle (_ bv0 6) ?x6617)))) (= ?x3462 ?x2084) (= (stack_t x_0 x_1 x_2 x_3 x_SHA3_0 2 ?x8028) ?x2084) (= (stack_t x_0 x_1 x_2 x_3 x_SHA3_0 2 ?x10814) ?x7360) (= (stack_t x_0 x_1 x_2 x_3 x_SHA3_0 2 ?x4799) ?x10528) (= (stack_t x_0 x_1 x_2 x_3 x_SHA3_0 2 ?x11571) ?x6554) (= ?x11532 (+ 3 ?x5615)) $x8876 $x1621 $x4595 (= $x9627 (or $x8377 $x9710 $x11437)) (= ?x6400 ?x2435) (= (stack_t x_0 x_1 x_2 x_3 x_SHA3_0 3 ?x2182) ?x2435) (= (stack_t x_0 x_1 x_2 x_3 x_SHA3_0 3 ?x4747) ?x11718) (= (stack_t x_0 x_1 x_2 x_3 x_SHA3_0 3 ?x7962) ?x11275) (= (stack_t x_0 x_1 x_2 x_3 x_SHA3_0 3 ?x2173) ?x3462) $x4318 $x4773 $x5727 $x11453 (= $x3614 (or $x1561 (not (bvsle (_ bv0 6) ?x2182)) $x9627)) (= ?x6144 (f_SHA3 x_0 x_1 x_2 x_3 x_SHA3_0 ?x6400 ?x10723)) (= ?x11803 (+ 30 ?x1926)) $x11229 $x3831 $x467 $x11807 $x73 $x10136 $x58 $x3570 $x10988 (not (and $x7899 $x9409 $x4404 $x5299))))))))))))))))))))))))))))))))))))))))))))))))))))))))))))))))))))))))))))))))))))))))))))))))))))))))))))))))))))))))))))))))))))))))))))))))))))))))))))))))))))))
 )
(check-sat)
(get-proof)
